NAME : random_2
COMMENT : 32 random nodes
TYPE : TSP
DIMENSION : 32
EDGE_WEIGHT_TYPE : EUC_2D
NODE_COORD_SECTION
1 -1228 -2712
2 3245 3266
3 1415 882
4 3502 -1287
5 2983 1754
6 3676 -1829
7 -2491 2821
8 -590 -1970
9 3336 2182
10 -1679 -815
11 2418 4451
12 -2490 1743
13 -1635 521
14 2709 -2475
15 -1262 994
16 4329 3214
17 207 1260
18 2508 -462
19 4138 -91
20 2673 -806
21 -1548 -2683
22 3103 770
23 1605 683
24 -118 2125
25 -2134 2687
26 4247 845
27 3758 4054
28 -734 3469
29 2969 -1090
30 1692 -2733
31 244 -1991
32 4512 -1621
EOF